letting initialStacks = [9, 51, 23, 42, 5, 11, 10, 47, 18, 31, 37, 40, 25, 2, 19, 3, 48, 45, 24, 17, 8, 12, 1, 46, 39, 22, 6, 49, 28, 15, 30, 4, 35, 43, 50, 16, 32, 26, 21, 36, 44, 34, 38, 29, 14, 13, 7, 27, 20, 33, 41]
